# 2348
param n := 30;
param s := 1;
set E :=  (0,3) (0,14) (0,17) (0,19) (1,18) (2,8) (3,4) (5,8) (5,16) (5,20) (6,26) (7,12) (7,15) (7,28) (9,19) (10,11) (11,12) (11,27) (12,22) (13,14) (13,16) (14,18) (14,25) (17,22) (17,23) (19,25) (19,26) (20,22) (21,26) (21,28) (24,27) (27,29);
